GLPSOL--GLPK LP/MIP Solver 5.0
Parameter(s) specified in the command line:
 --lp ../modeles/4_229.lp --log 4_229.log
Reading problem data from '../modeles/4_229.lp'...
933 rows, 1840 columns, 6432 non-zeros
916 integer variables, all of which are binary
2783 lines were read
GLPK Integer Optimizer 5.0
933 rows, 1840 columns, 6432 non-zeros
916 integer variables, all of which are binary
Preprocessing...
904 constraint coefficient(s) were reduced
933 rows, 1836 columns, 6428 non-zeros
916 integer variables, all of which are binary
Scaling...
 A: min|aij| =  7.628e-05  max|aij| =  4.000e+00  ratio =  5.244e+04
GM: min|aij| =  6.608e-02  max|aij| =  1.513e+01  ratio =  2.290e+02
EQ: min|aij| =  4.367e-03  max|aij| =  1.000e+00  ratio =  2.290e+02
2N: min|aij| =  3.906e-03  max|aij| =  1.752e+00  ratio =  4.486e+02
Constructing initial basis...
Size of triangular part is 933
Solving LP relaxation...
GLPK Simplex Optimizer 5.0
933 rows, 1836 columns, 6428 non-zeros
      0: obj =   8.000000000e+00 inf =   1.950e+01 (9)
     59: obj =   4.998569794e-01 inf =   0.000e+00 (0)
*   228: obj =  -1.999868243e+00 inf =   2.742e-15 (0)
OPTIMAL LP SOLUTION FOUND
Integer optimization begins...
Long-step dual simplex will be used
+   228: mip =     not found yet >=              -inf        (1; 0)
+   340: >>>>>  -1.999868243e+00 >=  -1.999868243e+00 < 0.1% (113; 0)
+   340: mip =  -1.999868243e+00 >=     tree is empty   0.0% (0; 225)
INTEGER OPTIMAL SOLUTION FOUND
Time used:   0.1 secs
Memory used: 2.7 Mb (2788218 bytes)
